wcsp 100 3 501 512409557603043100
3 3 3 3 3 3 3 3 3 3 3 3 3 3 3 3 3 3 3 3 3 3 3 3 3 3 3 3 3 3 3 3 3 3 3 3 3 3 3 3 3 3 3 3 3 3 3 3 3 3 3 3 3 3 3 3 3 3 3 3 3 3 3 3 3 3 3 3 3 3 3 3 3 3 3 3 3 3 3 3 3 3 3 3 3 3 3 3 3 3 3 3 3 3 3 3 3 3 3 3
2 61 99 0 9
0 0 3
0 1 1
0 2 3
1 0 0
1 1 0
1 2 0
2 0 2
2 1 0
2 2 2
2 7 28 0 9
0 0 3
0 1 3
0 2 0
1 0 1
1 1 3
1 2 0
2 0 0
2 1 1
2 2 0
2 54 93 0 9
0 0 0
0 1 0
0 2 1
1 0 2
1 1 1
1 2 0
2 0 2
2 1 0
2 2 1
2 25 57 0 9
0 0 1
0 1 0
0 2 2
1 0 2
1 1 0
1 2 0
2 0 0
2 1 1
2 2 3
2 12 75 0 9
0 0 0
0 1 3
0 2 1
1 0 0
1 1 0
1 2 2
2 0 1
2 1 0
2 2 1
2 12 22 0 9
0 0 0
0 1 2
0 2 3
1 0 0
1 1 1
1 2 0
2 0 3
2 1 2
2 2 0
2 19 67 0 9
0 0 1
0 1 0
0 2 0
1 0 3
1 1 0
1 2 2
2 0 1
2 1 3
2 2 0
2 78 96 0 9
0 0 2
0 1 0
0 2 0
1 0 1
1 1 3
1 2 0
2 0 0
2 1 1
2 2 1
2 29 94 0 9
0 0 0
0 1 0
0 2 2
1 0 0
1 1 1
1 2 2
2 0 2
2 1 0
2 2 2
2 59 73 0 9
0 0 1
0 1 3
0 2 0
1 0 3
1 1 0
1 2 0
2 0 1
2 1 2
2 2 0
2 8 82 0 9
0 0 1
0 1 0
0 2 0
1 0 2
1 1 3
1 2 0
2 0 2
2 1 0
2 2 3
2 55 56 0 9
0 0 3
0 1 2
0 2 3
1 0 1
1 1 0
1 2 0
2 0 3
2 1 0
2 2 0
2 54 92 0 9
0 0 0
0 1 0
0 2 1
1 0 0
1 1 3
1 2 0
2 0 3
2 1 3
2 2 2
2 21 25 0 9
0 0 0
0 1 0
0 2 3
1 0 0
1 1 3
1 2 1
2 0 0
2 1 3
2 2 3
2 79 90 0 9
0 0 1
0 1 0
0 2 0
1 0 1
1 1 2
1 2 3
2 0 1
2 1 0
2 2 0
2 6 43 0 9
0 0 3
0 1 1
0 2 0
1 0 2
1 1 0
1 2 0
2 0 2
2 1 3
2 2 0
2 32 77 0 9
0 0 0
0 1 1
0 2 3
1 0 0
1 1 3
1 2 2
2 0 2
2 1 0
2 2 0
2 70 98 0 9
0 0 0
0 1 0
0 2 2
1 0 0
1 1 3
1 2 0
2 0 3
2 1 2
2 2 2
2 9 11 0 9
0 0 3
0 1 1
0 2 0
1 0 2
1 1 0
1 2 2
2 0 0
2 1 0
2 2 1
2 78 88 0 9
0 0 3
0 1 0
0 2 3
1 0 0
1 1 0
1 2 0
2 0 1
2 1 3
2 2 2
2 81 98 0 9
0 0 0
0 1 2
0 2 1
1 0 3
1 1 0
1 2 0
2 0 3
2 1 2
2 2 0
2 26 29 0 9
0 0 0
0 1 3
0 2 2
1 0 0
1 1 1
1 2 0
2 0 3
2 1 0
2 2 2
2 19 65 0 9
0 0 0
0 1 3
0 2 3
1 0 3
1 1 0
1 2 0
2 0 3
2 1 0
2 2 1
2 15 82 0 9
0 0 0
0 1 3
0 2 0
1 0 2
1 1 3
1 2 0
2 0 2
2 1 0
2 2 3
2 8 95 0 9
0 0 1
0 1 0
0 2 0
1 0 1
1 1 1
1 2 3
2 0 1
2 1 0
2 2 0
2 5 35 0 9
0 0 0
0 1 2
0 2 0
1 0 1
1 1 2
1 2 3
2 0 1
2 1 0
2 2 0
2 18 91 0 9
0 0 1
0 1 0
0 2 1
1 0 3
1 1 3
1 2 0
2 0 3
2 1 0
2 2 0
2 33 48 0 9
0 0 0
0 1 2
0 2 2
1 0 0
1 1 0
1 2 0
2 0 2
2 1 1
2 2 2
2 14 82 0 9
0 0 0
0 1 2
0 2 0
1 0 0
1 1 1
1 2 2
2 0 0
2 1 3
2 2 2
2 14 53 0 9
0 0 1
0 1 0
0 2 0
1 0 1
1 1 0
1 2 1
2 0 0
2 1 3
2 2 1
2 5 81 0 9
0 0 0
0 1 3
0 2 0
1 0 3
1 1 1
1 2 1
2 0 2
2 1 0
2 2 0
2 55 63 0 9
0 0 0
0 1 2
0 2 3
1 0 0
1 1 0
1 2 0
2 0 1
2 1 3
2 2 2
2 66 74 0 9
0 0 0
0 1 3
0 2 0
1 0 0
1 1 1
1 2 1
2 0 0
2 1 2
2 2 1
2 45 86 0 9
0 0 3
0 1 0
0 2 0
1 0 1
1 1 0
1 2 1
2 0 1
2 1 1
2 2 0
2 36 38 0 9
0 0 3
0 1 1
0 2 2
1 0 2
1 1 2
1 2 0
2 0 0
2 1 0
2 2 0
2 38 61 0 9
0 0 0
0 1 0
0 2 2
1 0 0
1 1 0
1 2 2
2 0 1
2 1 3
2 2 1
2 16 40 0 9
0 0 0
0 1 3
0 2 0
1 0 0
1 1 3
1 2 3
2 0 2
2 1 2
2 2 0
2 49 83 0 9
0 0 2
0 1 2
0 2 1
1 0 0
1 1 2
1 2 1
2 0 0
2 1 0
2 2 0
2 77 81 0 9
0 0 1
0 1 2
0 2 0
1 0 2
1 1 0
1 2 2
2 0 0
2 1 2
2 2 0
2 39 94 0 9
0 0 1
0 1 0
0 2 0
1 0 2
1 1 3
1 2 0
2 0 1
2 1 3
2 2 0
2 65 86 0 9
0 0 0
0 1 2
0 2 1
1 0 3
1 1 1
1 2 0
2 0 0
2 1 0
2 2 2
2 3 16 0 9
0 0 0
0 1 3
0 2 2
1 0 0
1 1 1
1 2 0
2 0 3
2 1 0
2 2 3
2 21 62 0 9
0 0 3
0 1 1
0 2 2
1 0 2
1 1 0
1 2 0
2 0 0
2 1 3
2 2 0
2 23 25 0 9
0 0 3
0 1 2
0 2 0
1 0 1
1 1 1
1 2 0
2 0 2
2 1 0
2 2 0
2 55 59 0 9
0 0 2
0 1 2
0 2 3
1 0 2
1 1 0
1 2 1
2 0 0
2 1 0
2 2 0
2 80 87 0 9
0 0 0
0 1 0
0 2 2
1 0 1
1 1 0
1 2 0
2 0 2
2 1 2
2 2 1
2 50 90 0 9
0 0 2
0 1 0
0 2 0
1 0 1
1 1 0
1 2 3
2 0 3
2 1 0
2 2 3
2 8 87 0 9
0 0 0
0 1 3
0 2 1
1 0 1
1 1 0
1 2 2
2 0 0
2 1 2
2 2 0
2 54 72 0 9
0 0 0
0 1 1
0 2 0
1 0 0
1 1 3
1 2 0
2 0 3
2 1 2
2 2 3
2 17 87 0 9
0 0 1
0 1 0
0 2 0
1 0 1
1 1 3
1 2 1
2 0 0
2 1 0
2 2 3
2 32 73 0 9
0 0 1
0 1 1
0 2 0
1 0 0
1 1 2
1 2 1
2 0 2
2 1 0
2 2 0
2 11 13 0 9
0 0 0
0 1 2
0 2 0
1 0 0
1 1 3
1 2 0
2 0 3
2 1 1
2 2 1
2 40 85 0 9
0 0 0
0 1 0
0 2 2
1 0 2
1 1 0
1 2 3
2 0 0
2 1 2
2 2 1
2 11 76 0 9
0 0 0
0 1 0
0 2 3
1 0 0
1 1 1
1 2 0
2 0 1
2 1 1
2 2 3
2 75 81 0 9
0 0 2
0 1 0
0 2 2
1 0 1
1 1 1
1 2 2
2 0 0
2 1 0
2 2 0
2 34 89 0 9
0 0 1
0 1 0
0 2 3
1 0 0
1 1 0
1 2 1
2 0 3
2 1 0
2 2 1
2 22 83 0 9
0 0 2
0 1 1
0 2 2
1 0 0
1 1 0
1 2 0
2 0 2
2 1 2
2 2 0
2 25 27 0 9
0 0 0
0 1 3
0 2 3
1 0 1
1 1 0
1 2 0
2 0 2
2 1 0
2 2 3
2 97 98 0 9
0 0 0
0 1 0
0 2 0
1 0 3
1 1 0
1 2 3
2 0 2
2 1 3
2 2 2
2 37 74 0 9
0 0 1
0 1 0
0 2 0
1 0 2
1 1 1
1 2 2
2 0 0
2 1 0
2 2 1
2 12 69 0 9
0 0 0
0 1 1
0 2 1
1 0 0
1 1 3
1 2 0
2 0 0
2 1 3
2 2 3
2 44 91 0 9
0 0 0
0 1 1
0 2 3
1 0 1
1 1 0
1 2 3
2 0 0
2 1 0
2 2 2
2 20 60 0 9
0 0 0
0 1 0
0 2 3
1 0 0
1 1 1
1 2 2
2 0 0
2 1 1
2 2 3
2 46 52 0 9
0 0 0
0 1 0
0 2 1
1 0 3
1 1 0
1 2 0
2 0 1
2 1 2
2 2 3
2 12 88 0 9
0 0 3
0 1 0
0 2 3
1 0 2
1 1 2
1 2 0
2 0 0
2 1 3
2 2 0
2 40 74 0 9
0 0 0
0 1 3
0 2 3
1 0 3
1 1 0
1 2 1
2 0 0
2 1 1
2 2 0
2 3 82 0 9
0 0 0
0 1 0
0 2 1
1 0 3
1 1 0
1 2 3
2 0 1
2 1 0
2 2 3
2 92 94 0 9
0 0 2
0 1 1
0 2 0
1 0 0
1 1 1
1 2 0
2 0 0
2 1 1
2 2 2
2 6 48 0 9
0 0 1
0 1 0
0 2 0
1 0 1
1 1 3
1 2 0
2 0 0
2 1 2
2 2 2
2 11 16 0 9
0 0 1
0 1 1
0 2 0
1 0 0
1 1 0
1 2 3
2 0 3
2 1 2
2 2 0
2 64 71 0 9
0 0 0
0 1 2
0 2 2
1 0 0
1 1 3
1 2 0
2 0 3
2 1 0
2 2 2
2 52 86 0 9
0 0 3
0 1 0
0 2 2
1 0 3
1 1 0
1 2 0
2 0 0
2 1 3
2 2 2
2 63 71 0 9
0 0 0
0 1 0
0 2 3
1 0 0
1 1 0
1 2 3
2 0 1
2 1 2
2 2 1
2 27 94 0 9
0 0 1
0 1 3
0 2 0
1 0 0
1 1 2
1 2 1
2 0 1
2 1 0
2 2 0
2 2 61 0 9
0 0 1
0 1 2
0 2 0
1 0 0
1 1 1
1 2 2
2 0 2
2 1 0
2 2 0
2 28 93 0 9
0 0 1
0 1 0
0 2 0
1 0 0
1 1 1
1 2 3
2 0 1
2 1 1
2 2 0
2 85 88 0 9
0 0 1
0 1 0
0 2 0
1 0 0
1 1 1
1 2 0
2 0 3
2 1 1
2 2 1
2 18 24 0 9
0 0 2
0 1 1
0 2 0
1 0 3
1 1 3
1 2 0
2 0 1
2 1 0
2 2 0
2 33 63 0 9
0 0 3
0 1 0
0 2 0
1 0 0
1 1 2
1 2 3
2 0 1
2 1 0
2 2 3
2 11 56 0 9
0 0 0
0 1 1
0 2 0
1 0 1
1 1 0
1 2 0
2 0 3
2 1 2
2 2 3
2 14 16 0 9
0 0 3
0 1 0
0 2 2
1 0 0
1 1 2
1 2 0
2 0 2
2 1 2
2 2 0
2 31 36 0 9
0 0 1
0 1 2
0 2 0
1 0 0
1 1 0
1 2 0
2 0 2
2 1 2
2 2 3
2 11 38 0 9
0 0 0
0 1 3
0 2 0
1 0 3
1 1 2
1 2 0
2 0 3
2 1 2
2 2 0
2 33 52 0 9
0 0 0
0 1 1
0 2 1
1 0 2
1 1 1
1 2 0
2 0 0
2 1 2
2 2 0
2 12 49 0 9
0 0 0
0 1 2
0 2 3
1 0 0
1 1 3
1 2 0
2 0 0
2 1 1
2 2 3
2 26 67 0 9
0 0 0
0 1 1
0 2 1
1 0 0
1 1 0
1 2 0
2 0 2
2 1 3
2 2 2
2 18 59 0 9
0 0 0
0 1 1
0 2 0
1 0 0
1 1 1
1 2 2
2 0 0
2 1 2
2 2 3
2 13 56 0 9
0 0 2
0 1 1
0 2 0
1 0 1
1 1 0
1 2 0
2 0 3
2 1 2
2 2 0
2 26 50 0 9
0 0 0
0 1 2
0 2 2
1 0 2
1 1 3
1 2 0
2 0 0
2 1 3
2 2 0
2 47 51 0 9
0 0 0
0 1 0
0 2 2
1 0 1
1 1 3
1 2 2
2 0 0
2 1 3
2 2 0
2 66 80 0 9
0 0 2
0 1 1
0 2 3
1 0 0
1 1 2
1 2 0
2 0 3
2 1 0
2 2 0
2 31 69 0 9
0 0 2
0 1 0
0 2 1
1 0 0
1 1 3
1 2 0
2 0 2
2 1 3
2 2 0
2 12 53 0 9
0 0 0
0 1 2
0 2 1
1 0 0
1 1 2
1 2 0
2 0 0
2 1 3
2 2 2
2 14 27 0 9
0 0 1
0 1 1
0 2 0
1 0 0
1 1 0
1 2 0
2 0 3
2 1 3
2 2 3
2 69 98 0 9
0 0 1
0 1 1
0 2 2
1 0 0
1 1 2
1 2 0
2 0 1
2 1 0
2 2 0
2 61 69 0 9
0 0 0
0 1 3
0 2 3
1 0 0
1 1 0
1 2 2
2 0 2
2 1 0
2 2 2
2 76 95 0 9
0 0 0
0 1 0
0 2 0
1 0 3
1 1 3
1 2 1
2 0 1
2 1 0
2 2 3
2 43 97 0 9
0 0 0
0 1 3
0 2 0
1 0 2
1 1 2
1 2 0
2 0 2
2 1 0
2 2 1
2 25 68 0 9
0 0 0
0 1 0
0 2 2
1 0 1
1 1 0
1 2 2
2 0 1
2 1 3
2 2 0
2 32 63 0 9
0 0 0
0 1 2
0 2 2
1 0 0
1 1 2
1 2 0
2 0 0
2 1 2
2 2 1
2 44 45 0 9
0 0 3
0 1 0
0 2 0
1 0 1
1 1 3
1 2 2
2 0 0
2 1 0
2 2 3
2 64 99 0 9
0 0 0
0 1 1
0 2 1
1 0 3
1 1 0
1 2 1
2 0 0
2 1 0
2 2 3
2 39 66 0 9
0 0 3
0 1 1
0 2 0
1 0 1
1 1 0
1 2 0
2 0 1
2 1 1
2 2 0
2 1 75 0 9
0 0 0
0 1 2
0 2 1
1 0 3
1 1 2
1 2 0
2 0 0
2 1 0
2 2 2
2 34 88 0 9
0 0 1
0 1 0
0 2 1
1 0 0
1 1 2
1 2 3
2 0 0
2 1 1
2 2 0
2 34 76 0 9
0 0 2
0 1 1
0 2 2
1 0 1
1 1 0
1 2 0
2 0 0
2 1 2
2 2 0
2 45 77 0 9
0 0 2
0 1 0
0 2 0
1 0 0
1 1 1
1 2 2
2 0 3
2 1 0
2 2 2
2 50 52 0 9
0 0 0
0 1 3
0 2 2
1 0 3
1 1 2
1 2 0
2 0 0
2 1 1
2 2 0
2 18 68 0 9
0 0 1
0 1 3
0 2 0
1 0 1
1 1 0
1 2 2
2 0 0
2 1 0
2 2 1
2 4 51 0 9
0 0 3
0 1 0
0 2 0
1 0 0
1 1 2
1 2 3
2 0 0
2 1 2
2 2 1
2 64 98 0 9
0 0 2
0 1 0
0 2 1
1 0 0
1 1 0
1 2 1
2 0 3
2 1 0
2 2 2
2 43 74 0 9
0 0 1
0 1 0
0 2 1
1 0 0
1 1 3
1 2 0
2 0 0
2 1 3
2 2 3
2 1 24 0 9
0 0 3
0 1 0
0 2 3
1 0 1
1 1 3
1 2 0
2 0 0
2 1 0
2 2 3
2 7 88 0 9
0 0 2
0 1 3
0 2 3
1 0 0
1 1 0
1 2 0
2 0 2
2 1 0
2 2 3
2 9 40 0 9
0 0 0
0 1 2
0 2 0
1 0 2
1 1 2
1 2 3
2 0 2
2 1 0
2 2 0
2 17 53 0 9
0 0 0
0 1 0
0 2 0
1 0 3
1 1 2
1 2 1
2 0 2
2 1 1
2 2 0
2 35 87 0 9
0 0 2
0 1 0
0 2 1
1 0 3
1 1 0
1 2 0
2 0 0
2 1 1
2 2 1
2 76 83 0 9
0 0 1
0 1 3
0 2 0
1 0 0
1 1 3
1 2 0
2 0 1
2 1 0
2 2 3
2 6 92 0 9
0 0 3
0 1 0
0 2 0
1 0 0
1 1 0
1 2 1
2 0 2
2 1 2
2 2 2
2 9 19 0 9
0 0 3
0 1 0
0 2 0
1 0 3
1 1 2
1 2 3
2 0 0
2 1 1
2 2 0
2 71 84 0 9
0 0 3
0 1 0
0 2 0
1 0 2
1 1 3
1 2 0
2 0 2
2 1 3
2 2 0
2 43 88 0 9
0 0 0
0 1 2
0 2 2
1 0 0
1 1 2
1 2 3
2 0 3
2 1 0
2 2 0
2 43 72 0 9
0 0 3
0 1 1
0 2 0
1 0 0
1 1 1
1 2 0
2 0 0
2 1 1
2 2 3
2 10 53 0 9
0 0 0
0 1 1
0 2 3
1 0 0
1 1 2
1 2 3
2 0 0
2 1 0
2 2 1
2 9 58 0 9
0 0 3
0 1 0
0 2 3
1 0 2
1 1 0
1 2 1
2 0 0
2 1 0
2 2 1
2 15 45 0 9
0 0 0
0 1 1
0 2 0
1 0 2
1 1 2
1 2 0
2 0 2
2 1 2
2 2 0
2 12 30 0 9
0 0 3
0 1 0
0 2 0
1 0 0
1 1 1
1 2 3
2 0 1
2 1 0
2 2 1
2 16 29 0 9
0 0 1
0 1 1
0 2 0
1 0 0
1 1 0
1 2 2
2 0 2
2 1 2
2 2 0
2 28 64 0 9
0 0 1
0 1 0
0 2 1
1 0 0
1 1 0
1 2 0
2 0 1
2 1 3
2 2 1
2 82 99 0 9
0 0 2
0 1 0
0 2 0
1 0 3
1 1 1
1 2 1
2 0 1
2 1 0
2 2 0
2 33 34 0 9
0 0 0
0 1 0
0 2 0
1 0 3
1 1 1
1 2 0
2 0 3
2 1 1
2 2 1
2 43 99 0 9
0 0 2
0 1 0
0 2 0
1 0 3
1 1 1
1 2 0
2 0 3
2 1 1
2 2 0
2 25 63 0 9
0 0 1
0 1 0
0 2 0
1 0 2
1 1 0
1 2 1
2 0 2
2 1 0
2 2 1
2 13 88 0 9
0 0 3
0 1 3
0 2 0
1 0 2
1 1 3
1 2 3
2 0 0
2 1 0
2 2 0
2 46 87 0 9
0 0 0
0 1 2
0 2 2
1 0 3
1 1 0
1 2 0
2 0 2
2 1 2
2 2 0
2 7 47 0 9
0 0 1
0 1 1
0 2 0
1 0 0
1 1 0
1 2 1
2 0 1
2 1 2
2 2 0
2 44 73 0 9
0 0 0
0 1 0
0 2 3
1 0 2
1 1 2
1 2 1
2 0 0
2 1 1
2 2 0
2 46 98 0 9
0 0 3
0 1 2
0 2 0
1 0 3
1 1 3
1 2 0
2 0 0
2 1 2
2 2 0
2 54 91 0 9
0 0 1
0 1 0
0 2 0
1 0 1
1 1 0
1 2 3
2 0 0
2 1 1
2 2 1
2 2 42 0 9
0 0 1
0 1 0
0 2 0
1 0 0
1 1 1
1 2 1
2 0 3
2 1 0
2 2 3
2 0 97 0 9
0 0 0
0 1 3
0 2 0
1 0 1
1 1 0
1 2 0
2 0 2
2 1 1
2 2 2
2 0 9 0 9
0 0 1
0 1 3
0 2 0
1 0 0
1 1 2
1 2 0
2 0 1
2 1 3
2 2 0
2 1 52 0 9
0 0 0
0 1 3
0 2 0
1 0 0
1 1 0
1 2 1
2 0 1
2 1 2
2 2 1
2 29 55 0 9
0 0 2
0 1 0
0 2 2
1 0 1
1 1 2
1 2 0
2 0 0
2 1 1
2 2 0
2 19 54 0 9
0 0 1
0 1 3
0 2 0
1 0 3
1 1 0
1 2 0
2 0 1
2 1 0
2 2 2
2 7 60 0 9
0 0 1
0 1 3
0 2 0
1 0 0
1 1 1
1 2 0
2 0 0
2 1 1
2 2 1
2 23 56 0 9
0 0 0
0 1 3
0 2 0
1 0 0
1 1 0
1 2 2
2 0 1
2 1 1
2 2 1
2 33 44 0 9
0 0 0
0 1 2
0 2 1
1 0 0
1 1 3
1 2 1
2 0 0
2 1 2
2 2 0
2 38 99 0 9
0 0 0
0 1 0
0 2 3
1 0 3
1 1 1
1 2 0
2 0 1
2 1 0
2 2 1
2 31 60 0 9
0 0 2
0 1 0
0 2 1
1 0 0
1 1 3
1 2 0
2 0 3
2 1 3
2 2 0
2 2 48 0 9
0 0 0
0 1 0
0 2 0
1 0 3
1 1 2
1 2 3
2 0 0
2 1 3
2 2 3
2 4 86 0 9
0 0 2
0 1 0
0 2 2
1 0 0
1 1 1
1 2 1
2 0 0
2 1 0
2 2 3
2 68 85 0 9
0 0 0
0 1 2
0 2 0
1 0 1
1 1 2
1 2 1
2 0 1
2 1 0
2 2 0
2 24 41 0 9
0 0 0
0 1 2
0 2 2
1 0 3
1 1 0
1 2 1
2 0 0
2 1 0
2 2 1
2 68 76 0 9
0 0 3
0 1 1
0 2 0
1 0 3
1 1 0
1 2 0
2 0 0
2 1 1
2 2 1
2 47 72 0 9
0 0 1
0 1 0
0 2 2
1 0 2
1 1 3
1 2 0
2 0 3
2 1 0
2 2 0
2 40 93 0 9
0 0 1
0 1 2
0 2 1
1 0 0
1 1 0
1 2 0
2 0 1
2 1 0
2 2 1
2 53 63 0 9
0 0 0
0 1 0
0 2 0
1 0 1
1 1 2
1 2 0
2 0 3
2 1 3
2 2 2
2 18 71 0 9
0 0 3
0 1 0
0 2 2
1 0 2
1 1 1
1 2 0
2 0 3
2 1 0
2 2 0
2 45 93 0 9
0 0 3
0 1 0
0 2 0
1 0 2
1 1 0
1 2 3
2 0 3
2 1 0
2 2 3
2 27 99 0 9
0 0 0
0 1 2
0 2 3
1 0 0
1 1 0
1 2 1
2 0 3
2 1 1
2 2 0
2 36 94 0 9
0 0 0
0 1 2
0 2 0
1 0 0
1 1 2
1 2 2
2 0 0
2 1 1
2 2 2
2 47 84 0 9
0 0 3
0 1 0
0 2 2
1 0 0
1 1 0
1 2 3
2 0 3
2 1 2
2 2 0
2 60 86 0 9
0 0 0
0 1 1
0 2 2
1 0 1
1 1 2
1 2 0
2 0 0
2 1 3
2 2 0
2 46 99 0 9
0 0 3
0 1 0
0 2 0
1 0 1
1 1 0
1 2 1
2 0 0
2 1 1
2 2 1
2 52 87 0 9
0 0 0
0 1 3
0 2 2
1 0 1
1 1 0
1 2 0
2 0 2
2 1 0
2 2 2
2 73 83 0 9
0 0 0
0 1 3
0 2 1
1 0 0
1 1 2
1 2 1
2 0 0
2 1 1
2 2 0
2 9 89 0 9
0 0 0
0 1 2
0 2 0
1 0 1
1 1 1
1 2 3
2 0 0
2 1 3
2 2 0
2 80 84 0 9
0 0 3
0 1 0
0 2 0
1 0 3
1 1 0
1 2 1
2 0 1
2 1 2
2 2 0
2 42 85 0 9
0 0 0
0 1 0
0 2 2
1 0 1
1 1 0
1 2 1
2 0 3
2 1 0
2 2 2
2 2 36 0 9
0 0 0
0 1 0
0 2 1
1 0 3
1 1 1
1 2 0
2 0 2
2 1 3
2 2 0
2 41 48 0 9
0 0 2
0 1 0
0 2 0
1 0 1
1 1 0
1 2 2
2 0 3
2 1 0
2 2 1
2 8 42 0 9
0 0 0
0 1 0
0 2 1
1 0 0
1 1 3
1 2 0
2 0 2
2 1 3
2 2 3
2 36 70 0 9
0 0 0
0 1 0
0 2 2
1 0 2
1 1 2
1 2 0
2 0 0
2 1 3
2 2 3
2 6 8 0 9
0 0 1
0 1 3
0 2 2
1 0 1
1 1 0
1 2 0
2 0 0
2 1 0
2 2 3
2 43 51 0 9
0 0 0
0 1 3
0 2 0
1 0 0
1 1 2
1 2 0
2 0 2
2 1 1
2 2 2
2 54 79 0 9
0 0 2
0 1 3
0 2 3
1 0 0
1 1 3
1 2 0
2 0 0
2 1 0
2 2 1
2 6 96 0 9
0 0 0
0 1 0
0 2 2
1 0 3
1 1 1
1 2 0
2 0 2
2 1 1
2 2 0
2 54 78 0 9
0 0 3
0 1 0
0 2 0
1 0 3
1 1 0
1 2 0
2 0 2
2 1 2
2 2 1
2 18 84 0 9
0 0 2
0 1 0
0 2 0
1 0 1
1 1 0
1 2 0
2 0 2
2 1 1
2 2 1
2 3 9 0 9
0 0 2
0 1 0
0 2 2
1 0 0
1 1 3
1 2 3
2 0 0
2 1 0
2 2 2
2 10 36 0 9
0 0 0
0 1 2
0 2 3
1 0 0
1 1 1
1 2 3
2 0 0
2 1 0
2 2 2
2 25 38 0 9
0 0 2
0 1 3
0 2 0
1 0 1
1 1 0
1 2 0
2 0 2
2 1 0
2 2 2
2 15 29 0 9
0 0 0
0 1 1
0 2 2
1 0 2
1 1 0
1 2 0
2 0 2
2 1 0
2 2 1
2 10 86 0 9
0 0 0
0 1 3
0 2 1
1 0 2
1 1 1
1 2 0
2 0 2
2 1 0
2 2 0
2 36 57 0 9
0 0 0
0 1 0
0 2 3
1 0 3
1 1 0
1 2 3
2 0 2
2 1 2
2 2 0
2 32 37 0 9
0 0 0
0 1 3
0 2 0
1 0 0
1 1 1
1 2 1
2 0 3
2 1 0
2 2 2
2 75 85 0 9
0 0 0
0 1 0
0 2 2
1 0 2
1 1 0
1 2 2
2 0 3
2 1 0
2 2 3
2 23 50 0 9
0 0 0
0 1 2
0 2 0
1 0 2
1 1 3
1 2 2
2 0 0
2 1 1
2 2 0
2 22 59 0 9
0 0 0
0 1 2
0 2 0
1 0 3
1 1 3
1 2 0
2 0 0
2 1 2
2 2 2
2 8 61 0 9
0 0 3
0 1 0
0 2 2
1 0 2
1 1 0
1 2 0
2 0 0
2 1 2
2 2 3
2 38 66 0 9
0 0 0
0 1 2
0 2 2
1 0 2
1 1 0
1 2 3
2 0 0
2 1 0
2 2 2
2 32 96 0 9
0 0 0
0 1 3
0 2 2
1 0 0
1 1 0
1 2 1
2 0 2
2 1 0
2 2 3
2 62 65 0 9
0 0 3
0 1 0
0 2 2
1 0 0
1 1 2
1 2 3
2 0 0
2 1 3
2 2 0
2 0 19 0 9
0 0 0
0 1 2
0 2 2
1 0 0
1 1 3
1 2 3
2 0 0
2 1 1
2 2 0
2 24 30 0 9
0 0 1
0 1 0
0 2 3
1 0 1
1 1 3
1 2 0
2 0 0
2 1 1
2 2 0
2 31 33 0 9
0 0 2
0 1 0
0 2 0
1 0 3
1 1 3
1 2 1
2 0 0
2 1 0
2 2 3
2 36 88 0 9
0 0 0
0 1 3
0 2 2
1 0 2
1 1 0
1 2 0
2 0 2
2 1 0
2 2 1
2 67 88 0 9
0 0 0
0 1 1
0 2 0
1 0 0
1 1 3
1 2 1
2 0 3
2 1 1
2 2 0
2 12 92 0 9
0 0 0
0 1 0
0 2 1
1 0 1
1 1 0
1 2 0
2 0 3
2 1 2
2 2 1
2 32 44 0 9
0 0 3
0 1 1
0 2 0
1 0 2
1 1 1
1 2 2
2 0 0
2 1 0
2 2 0
2 10 29 0 9
0 0 0
0 1 2
0 2 0
1 0 1
1 1 1
1 2 0
2 0 2
2 1 3
2 2 0
2 69 79 0 9
0 0 3
0 1 2
0 2 1
1 0 0
1 1 2
1 2 0
2 0 3
2 1 0
2 2 0
2 2 94 0 9
0 0 3
0 1 0
0 2 0
1 0 1
1 1 2
1 2 1
2 0 0
2 1 0
2 2 1
2 6 98 0 9
0 0 0
0 1 0
0 2 1
1 0 0
1 1 3
1 2 3
2 0 0
2 1 1
2 2 1
2 55 77 0 9
0 0 2
0 1 3
0 2 0
1 0 3
1 1 0
1 2 2
2 0 0
2 1 1
2 2 0
2 24 54 0 9
0 0 0
0 1 1
0 2 1
1 0 3
1 1 0
1 2 0
2 0 0
2 1 2
2 2 1
2 17 67 0 9
0 0 0
0 1 2
0 2 3
1 0 0
1 1 1
1 2 2
2 0 2
2 1 0
2 2 0
2 15 99 0 9
0 0 1
0 1 0
0 2 0
1 0 1
1 1 1
1 2 3
2 0 0
2 1 1
2 2 0
2 3 53 0 9
0 0 0
0 1 0
0 2 1
1 0 0
1 1 3
1 2 3
2 0 0
2 1 3
2 2 3
2 19 89 0 9
0 0 3
0 1 3
0 2 0
1 0 3
1 1 0
1 2 0
2 0 1
2 1 0
2 2 1
2 4 46 0 9
0 0 2
0 1 1
0 2 2
1 0 0
1 1 0
1 2 3
2 0 0
2 1 0
2 2 1
2 20 66 0 9
0 0 0
0 1 0
0 2 1
1 0 2
1 1 2
1 2 0
2 0 1
2 1 0
2 2 2
2 6 27 0 9
0 0 1
0 1 0
0 2 2
1 0 1
1 1 3
1 2 0
2 0 3
2 1 0
2 2 0
2 25 61 0 9
0 0 0
0 1 0
0 2 3
1 0 1
1 1 1
1 2 3
2 0 0
2 1 1
2 2 0
2 12 34 0 9
0 0 2
0 1 0
0 2 2
1 0 1
1 1 1
1 2 0
2 0 0
2 1 0
2 2 3
2 48 64 0 9
0 0 0
0 1 2
0 2 2
1 0 2
1 1 0
1 2 0
2 0 0
2 1 1
2 2 2
2 51 71 0 9
0 0 1
0 1 0
0 2 2
1 0 0
1 1 2
1 2 0
2 0 3
2 1 0
2 2 1
2 19 63 0 9
0 0 0
0 1 0
0 2 0
1 0 0
1 1 2
1 2 2
2 0 3
2 1 1
2 2 3
2 7 59 0 9
0 0 0
0 1 0
0 2 2
1 0 2
1 1 1
1 2 0
2 0 0
2 1 3
2 2 3
2 43 83 0 9
0 0 0
0 1 3
0 2 1
1 0 0
1 1 1
1 2 0
2 0 3
2 1 2
2 2 0
2 25 84 0 9
0 0 3
0 1 1
0 2 0
1 0 0
1 1 3
1 2 0
2 0 1
2 1 3
2 2 0
2 50 67 0 9
0 0 1
0 1 0
0 2 2
1 0 0
1 1 2
1 2 0
2 0 0
2 1 3
2 2 3
2 6 81 0 9
0 0 1
0 1 3
0 2 0
1 0 1
1 1 1
1 2 0
2 0 2
2 1 0
2 2 0
2 42 58 0 9
0 0 0
0 1 0
0 2 3
1 0 1
1 1 2
1 2 2
2 0 0
2 1 0
2 2 3
2 1 23 0 9
0 0 3
0 1 3
0 2 0
1 0 0
1 1 0
1 2 1
2 0 0
2 1 3
2 2 2
2 33 38 0 9
0 0 0
0 1 0
0 2 3
1 0 0
1 1 0
1 2 1
2 0 1
2 1 3
2 2 3
2 29 52 0 9
0 0 2
0 1 0
0 2 0
1 0 2
1 1 0
1 2 2
2 0 3
2 1 1
2 2 0
2 52 94 0 9
0 0 1
0 1 0
0 2 1
1 0 3
1 1 0
1 2 0
2 0 3
2 1 0
2 2 2
2 58 96 0 9
0 0 0
0 1 1
0 2 1
1 0 3
1 1 0
1 2 0
2 0 2
2 1 0
2 2 2
2 66 69 0 9
0 0 2
0 1 0
0 2 0
1 0 0
1 1 2
1 2 0
2 0 3
2 1 3
2 2 3
2 57 59 0 9
0 0 0
0 1 1
0 2 1
1 0 0
1 1 3
1 2 0
2 0 3
2 1 0
2 2 1
2 67 90 0 9
0 0 3
0 1 0
0 2 0
1 0 2
1 1 2
1 2 0
2 0 0
2 1 1
2 2 2
2 46 48 0 9
0 0 2
0 1 1
0 2 1
1 0 3
1 1 0
1 2 0
2 0 3
2 1 0
2 2 0
2 3 28 0 9
0 0 0
0 1 0
0 2 1
1 0 3
1 1 0
1 2 1
2 0 0
2 1 1
2 2 3
2 1 22 0 9
0 0 0
0 1 1
0 2 2
1 0 0
1 1 0
1 2 0
2 0 3
2 1 3
2 2 2
2 21 99 0 9
0 0 3
0 1 2
0 2 0
1 0 3
1 1 2
1 2 0
2 0 1
2 1 0
2 2 0
2 34 63 0 9
0 0 0
0 1 0
0 2 0
1 0 0
1 1 1
1 2 3
2 0 1
2 1 1
2 2 1
2 22 38 0 9
0 0 0
0 1 0
0 2 3
1 0 2
1 1 1
1 2 3
2 0 2
2 1 0
2 2 0
2 64 76 0 9
0 0 0
0 1 1
0 2 0
1 0 0
1 1 0
1 2 3
2 0 1
2 1 2
2 2 2
2 90 97 0 9
0 0 0
0 1 1
0 2 1
1 0 0
1 1 3
1 2 2
2 0 0
2 1 1
2 2 0
2 61 71 0 9
0 0 0
0 1 2
0 2 0
1 0 2
1 1 2
1 2 0
2 0 2
2 1 0
2 2 3
2 13 96 0 9
0 0 0
0 1 0
0 2 2
1 0 2
1 1 0
1 2 2
2 0 2
2 1 1
2 2 0
2 55 91 0 9
0 0 0
0 1 0
0 2 3
1 0 0
1 1 0
1 2 1
2 0 3
2 1 1
2 2 1
2 13 99 0 9
0 0 0
0 1 3
0 2 0
1 0 0
1 1 3
1 2 2
2 0 0
2 1 1
2 2 2
2 82 87 0 9
0 0 2
0 1 0
0 2 2
1 0 0
1 1 2
1 2 0
2 0 3
2 1 0
2 2 2
2 13 36 0 9
0 0 3
0 1 3
0 2 0
1 0 2
1 1 0
1 2 0
2 0 3
2 1 0
2 2 3
2 30 93 0 9
0 0 2
0 1 0
0 2 0
1 0 3
1 1 0
1 2 3
2 0 0
2 1 1
2 2 1
2 14 51 0 9
0 0 2
0 1 1
0 2 0
1 0 3
1 1 0
1 2 2
2 0 0
2 1 0
2 2 1
2 63 77 0 9
0 0 0
0 1 0
0 2 1
1 0 0
1 1 3
1 2 0
2 0 1
2 1 3
2 2 2
2 87 99 0 9
0 0 3
0 1 0
0 2 0
1 0 0
1 1 2
1 2 1
2 0 0
2 1 1
2 2 1
2 17 18 0 9
0 0 0
0 1 0
0 2 1
1 0 3
1 1 1
1 2 0
2 0 0
2 1 2
2 2 1
2 1 21 0 9
0 0 3
0 1 3
0 2 0
1 0 2
1 1 0
1 2 0
2 0 0
2 1 2
2 2 3
2 45 83 0 9
0 0 3
0 1 0
0 2 0
1 0 2
1 1 2
1 2 0
2 0 1
2 1 3
2 2 0
2 10 17 0 9
0 0 0
0 1 1
0 2 1
1 0 0
1 1 0
1 2 1
2 0 2
2 1 1
2 2 0
2 16 70 0 9
0 0 3
0 1 0
0 2 1
1 0 1
1 1 0
1 2 2
2 0 0
2 1 2
2 2 0
2 39 49 0 9
0 0 3
0 1 3
0 2 0
1 0 2
1 1 1
1 2 0
2 0 0
2 1 2
2 2 0
2 41 61 0 9
0 0 2
0 1 3
0 2 0
1 0 2
1 1 0
1 2 0
2 0 1
2 1 0
2 2 3
2 29 35 0 9
0 0 3
0 1 0
0 2 0
1 0 0
1 1 1
1 2 0
2 0 3
2 1 1
2 2 2
2 16 76 0 9
0 0 0
0 1 3
0 2 0
1 0 2
1 1 1
1 2 3
2 0 1
2 1 0
2 2 0
2 68 97 0 9
0 0 0
0 1 2
0 2 0
1 0 3
1 1 1
1 2 1
2 0 3
2 1 0
2 2 0
2 3 70 0 9
0 0 3
0 1 0
0 2 0
1 0 1
1 1 0
1 2 1
2 0 0
2 1 1
2 2 3
2 3 19 0 9
0 0 0
0 1 3
0 2 1
1 0 0
1 1 0
1 2 0
2 0 2
2 1 2
2 2 1
2 15 25 0 9
0 0 1
0 1 0
0 2 0
1 0 3
1 1 1
1 2 0
2 0 2
2 1 0
2 2 2
2 20 36 0 9
0 0 0
0 1 0
0 2 1
1 0 0
1 1 1
1 2 1
2 0 0
2 1 1
2 2 1
2 40 67 0 9
0 0 2
0 1 0
0 2 3
1 0 0
1 1 0
1 2 3
2 0 2
2 1 3
2 2 0
2 20 23 0 9
0 0 1
0 1 2
0 2 0
1 0 0
1 1 0
1 2 1
2 0 2
2 1 1
2 2 0
2 25 86 0 9
0 0 3
0 1 0
0 2 3
1 0 1
1 1 0
1 2 2
2 0 0
2 1 0
2 2 3
2 16 26 0 9
0 0 2
0 1 0
0 2 3
1 0 0
1 1 0
1 2 0
2 0 3
2 1 3
2 2 1
2 62 75 0 9
0 0 1
0 1 3
0 2 0
1 0 1
1 1 1
1 2 3
2 0 0
2 1 0
2 2 0
2 13 48 0 9
0 0 3
0 1 0
0 2 1
1 0 0
1 1 1
1 2 0
2 0 3
2 1 0
2 2 1
2 31 76 0 9
0 0 0
0 1 0
0 2 1
1 0 0
1 1 2
1 2 2
2 0 0
2 1 1
2 2 3
2 9 55 0 9
0 0 1
0 1 2
0 2 0
1 0 0
1 1 3
1 2 2
2 0 1
2 1 0
2 2 0
2 3 83 0 9
0 0 3
0 1 1
0 2 0
1 0 2
1 1 0
1 2 0
2 0 3
2 1 1
2 2 0
2 9 51 0 9
0 0 1
0 1 1
0 2 0
1 0 2
1 1 0
1 2 0
2 0 1
2 1 0
2 2 1
2 38 62 0 9
0 0 0
0 1 3
0 2 0
1 0 1
1 1 0
1 2 3
2 0 2
2 1 0
2 2 3
2 54 85 0 9
0 0 0
0 1 2
0 2 0
1 0 3
1 1 1
1 2 0
2 0 2
2 1 2
2 2 0
2 3 46 0 9
0 0 0
0 1 1
0 2 2
1 0 1
1 1 0
1 2 0
2 0 1
2 1 3
2 2 0
2 66 93 0 9
0 0 3
0 1 0
0 2 0
1 0 1
1 1 3
1 2 0
2 0 0
2 1 2
2 2 2
2 13 61 0 9
0 0 3
0 1 0
0 2 2
1 0 0
1 1 3
1 2 2
2 0 3
2 1 0
2 2 0
2 13 34 0 9
0 0 1
0 1 2
0 2 0
1 0 2
1 1 0
1 2 2
2 0 3
2 1 0
2 2 0
2 18 63 0 9
0 0 3
0 1 0
0 2 0
1 0 0
1 1 3
1 2 0
2 0 3
2 1 2
2 2 1
2 45 96 0 9
0 0 3
0 1 0
0 2 1
1 0 0
1 1 3
1 2 2
2 0 2
2 1 0
2 2 0
2 61 90 0 9
0 0 3
0 1 2
0 2 0
1 0 0
1 1 2
1 2 2
2 0 0
2 1 0
2 2 1
2 26 34 0 9
0 0 1
0 1 0
0 2 0
1 0 2
1 1 0
1 2 0
2 0 2
2 1 3
2 2 2
2 34 91 0 9
0 0 3
0 1 3
0 2 0
1 0 0
1 1 0
1 2 0
2 0 1
2 1 3
2 2 1
2 5 83 0 9
0 0 0
0 1 0
0 2 1
1 0 0
1 1 1
1 2 3
2 0 0
2 1 2
2 2 2
2 13 59 0 9
0 0 0
0 1 3
0 2 3
1 0 0
1 1 0
1 2 2
2 0 0
2 1 1
2 2 3
2 23 27 0 9
0 0 0
0 1 3
0 2 0
1 0 3
1 1 1
1 2 0
2 0 0
2 1 3
2 2 3
2 85 86 0 9
0 0 1
0 1 0
0 2 2
1 0 0
1 1 2
1 2 3
2 0 0
2 1 0
2 2 3
2 38 91 0 9
0 0 2
0 1 0
0 2 1
1 0 1
1 1 2
1 2 0
2 0 0
2 1 2
2 2 0
2 3 31 0 9
0 0 3
0 1 0
0 2 2
1 0 1
1 1 0
1 2 0
2 0 3
2 1 2
2 2 0
2 43 57 0 9
0 0 1
0 1 0
0 2 0
1 0 2
1 1 2
1 2 0
2 0 1
2 1 2
2 2 0
2 11 99 0 9
0 0 3
0 1 0
0 2 3
1 0 0
1 1 0
1 2 2
2 0 0
2 1 3
2 2 2
2 13 58 0 9
0 0 0
0 1 2
0 2 0
1 0 0
1 1 3
1 2 0
2 0 2
2 1 3
2 2 1
2 96 98 0 9
0 0 0
0 1 0
0 2 1
1 0 2
1 1 0
1 2 3
2 0 3
2 1 0
2 2 1
2 17 57 0 9
0 0 3
0 1 0
0 2 0
1 0 2
1 1 0
1 2 2
2 0 0
2 1 3
2 2 2
2 63 95 0 9
0 0 3
0 1 0
0 2 2
1 0 3
1 1 1
1 2 0
2 0 1
2 1 0
2 2 0
2 4 99 0 9
0 0 0
0 1 2
0 2 2
1 0 0
1 1 1
1 2 2
2 0 0
2 1 0
2 2 2
2 45 98 0 9
0 0 1
0 1 0
0 2 0
1 0 1
1 1 0
1 2 0
2 0 3
2 1 3
2 2 1
2 57 64 0 9
0 0 1
0 1 1
0 2 3
1 0 3
1 1 0
1 2 2
2 0 0
2 1 0
2 2 0
2 25 26 0 9
0 0 3
0 1 1
0 2 0
1 0 3
1 1 2
1 2 1
2 0 0
2 1 0
2 2 0
2 0 49 0 9
0 0 1
0 1 0
0 2 2
1 0 0
1 1 1
1 2 2
2 0 0
2 1 1
2 2 0
2 36 91 0 9
0 0 0
0 1 3
0 2 0
1 0 0
1 1 1
1 2 2
2 0 3
2 1 0
2 2 3
2 48 49 0 9
0 0 0
0 1 0
0 2 0
1 0 2
1 1 3
1 2 3
2 0 0
2 1 1
2 2 1
2 37 83 0 9
0 0 0
0 1 1
0 2 0
1 0 2
1 1 0
1 2 0
2 0 1
2 1 2
2 2 2
2 58 61 0 9
0 0 3
0 1 0
0 2 0
1 0 2
1 1 3
1 2 0
2 0 2
2 1 0
2 2 2
2 71 82 0 9
0 0 3
0 1 1
0 2 0
1 0 3
1 1 0
1 2 3
2 0 1
2 1 0
2 2 0
2 90 91 0 9
0 0 0
0 1 3
0 2 2
1 0 0
1 1 1
1 2 0
2 0 2
2 1 0
2 2 1
2 18 73 0 9
0 0 0
0 1 0
0 2 3
1 0 3
1 1 0
1 2 3
2 0 1
2 1 0
2 2 3
2 22 61 0 9
0 0 1
0 1 1
0 2 0
1 0 2
1 1 0
1 2 2
2 0 2
2 1 0
2 2 0
2 29 89 0 9
0 0 0
0 1 1
0 2 0
1 0 0
1 1 0
1 2 3
2 0 1
2 1 1
2 2 2
2 46 89 0 9
0 0 1
0 1 2
0 2 0
1 0 0
1 1 2
1 2 3
2 0 0
2 1 1
2 2 0
2 17 39 0 9
0 0 0
0 1 2
0 2 1
1 0 2
1 1 0
1 2 3
2 0 0
2 1 0
2 2 3
2 10 40 0 9
0 0 0
0 1 0
0 2 0
1 0 2
1 1 0
1 2 2
2 0 1
2 1 1
2 2 1
2 14 86 0 9
0 0 3
0 1 0
0 2 0
1 0 3
1 1 0
1 2 2
2 0 0
2 1 2
2 2 1
2 60 70 0 9
0 0 3
0 1 3
0 2 3
1 0 1
1 1 0
1 2 3
2 0 0
2 1 0
2 2 0
2 4 18 0 9
0 0 1
0 1 0
0 2 1
1 0 0
1 1 0
1 2 1
2 0 1
2 1 3
2 2 0
2 42 93 0 9
0 0 0
0 1 0
0 2 1
1 0 0
1 1 3
1 2 1
2 0 0
2 1 2
2 2 1
2 53 89 0 9
0 0 0
0 1 0
0 2 0
1 0 3
1 1 1
1 2 0
2 0 2
2 1 2
2 2 3
2 5 52 0 9
0 0 0
0 1 3
0 2 1
1 0 1
1 1 3
1 2 0
2 0 2
2 1 0
2 2 0
2 2 7 0 9
0 0 2
0 1 0
0 2 0
1 0 0
1 1 0
1 2 3
2 0 1
2 1 1
2 2 1
2 28 89 0 9
0 0 0
0 1 1
0 2 3
1 0 0
1 1 1
1 2 2
2 0 0
2 1 0
2 2 3
2 71 94 0 9
0 0 3
0 1 1
0 2 2
1 0 3
1 1 0
1 2 0
2 0 0
2 1 1
2 2 0
2 92 99 0 9
0 0 0
0 1 1
0 2 0
1 0 3
1 1 0
1 2 3
2 0 0
2 1 1
2 2 1
2 57 58 0 9
0 0 3
0 1 3
0 2 1
1 0 0
1 1 0
1 2 0
2 0 0
2 1 1
2 2 3
2 1 13 0 9
0 0 0
0 1 0
0 2 0
1 0 1
1 1 3
1 2 2
2 0 3
2 1 2
2 2 0
2 34 92 0 9
0 0 3
0 1 2
0 2 0
1 0 3
1 1 0
1 2 2
2 0 0
2 1 0
2 2 3
2 75 87 0 9
0 0 1
0 1 3
0 2 0
1 0 0
1 1 3
1 2 3
2 0 0
2 1 1
2 2 0
2 30 82 0 9
0 0 1
0 1 0
0 2 0
1 0 0
1 1 3
1 2 3
2 0 0
2 1 2
2 2 1
2 64 87 0 9
0 0 3
0 1 0
0 2 3
1 0 3
1 1 0
1 2 0
2 0 1
2 1 0
2 2 2
2 4 27 0 9
0 0 2
0 1 0
0 2 3
1 0 1
1 1 0
1 2 2
2 0 0
2 1 0
2 2 1
2 6 49 0 9
0 0 3
0 1 1
0 2 0
1 0 0
1 1 2
1 2 2
2 0 2
2 1 0
2 2 0
2 2 32 0 9
0 0 2
0 1 1
0 2 3
1 0 2
1 1 0
1 2 3
2 0 0
2 1 0
2 2 0
2 44 58 0 9
0 0 0
0 1 3
0 2 3
1 0 3
1 1 1
1 2 1
2 0 0
2 1 0
2 2 0
2 19 35 0 9
0 0 0
0 1 2
0 2 3
1 0 0
1 1 2
1 2 3
2 0 0
2 1 0
2 2 2
2 44 71 0 9
0 0 2
0 1 3
0 2 2
1 0 2
1 1 0
1 2 0
2 0 0
2 1 0
2 2 2
2 44 88 0 9
0 0 1
0 1 2
0 2 2
1 0 0
1 1 0
1 2 2
2 0 0
2 1 1
2 2 0
2 11 55 0 9
0 0 3
0 1 0
0 2 1
1 0 2
1 1 0
1 2 0
2 0 3
2 1 1
2 2 0
2 44 62 0 9
0 0 1
0 1 0
0 2 2
1 0 2
1 1 0
1 2 2
2 0 0
2 1 0
2 2 3
2 66 76 0 9
0 0 0
0 1 1
0 2 0
1 0 0
1 1 0
1 2 3
2 0 2
2 1 3
2 2 3
2 74 88 0 9
0 0 1
0 1 0
0 2 1
1 0 0
1 1 0
1 2 3
2 0 1
2 1 3
2 2 0
2 36 84 0 9
0 0 3
0 1 1
0 2 3
1 0 0
1 1 0
1 2 0
2 0 0
2 1 2
2 2 2
2 23 26 0 9
0 0 0
0 1 0
0 2 3
1 0 2
1 1 0
1 2 3
2 0 2
2 1 3
2 2 0
2 10 65 0 9
0 0 0
0 1 2
0 2 0
1 0 2
1 1 1
1 2 3
2 0 0
2 1 0
2 2 3
2 35 88 0 9
0 0 2
0 1 1
0 2 3
1 0 3
1 1 0
1 2 0
2 0 0
2 1 0
2 2 2
2 36 86 0 9
0 0 0
0 1 3
0 2 2
1 0 0
1 1 0
1 2 1
2 0 2
2 1 0
2 2 3
2 77 94 0 9
0 0 0
0 1 3
0 2 0
1 0 0
1 1 0
1 2 1
2 0 3
2 1 1
2 2 2
2 18 72 0 9
0 0 1
0 1 1
0 2 0
1 0 1
1 1 0
1 2 2
2 0 0
2 1 0
2 2 2
2 59 96 0 9
0 0 0
0 1 0
0 2 1
1 0 1
1 1 3
1 2 1
2 0 3
2 1 0
2 2 0
2 3 54 0 9
0 0 3
0 1 1
0 2 0
1 0 0
1 1 0
1 2 3
2 0 0
2 1 2
2 2 3
2 6 33 0 9
0 0 2
0 1 0
0 2 2
1 0 1
1 1 0
1 2 2
2 0 0
2 1 0
2 2 3
2 14 29 0 9
0 0 0
0 1 1
0 2 1
1 0 0
1 1 3
1 2 0
2 0 2
2 1 3
2 2 0
2 15 20 0 9
0 0 2
0 1 0
0 2 0
1 0 2
1 1 0
1 2 1
2 0 0
2 1 1
2 2 2
2 66 85 0 9
0 0 3
0 1 0
0 2 0
1 0 2
1 1 1
1 2 0
2 0 3
2 1 0
2 2 1
2 24 95 0 9
0 0 3
0 1 0
0 2 2
1 0 0
1 1 0
1 2 3
2 0 3
2 1 0
2 2 1
2 10 90 0 9
0 0 0
0 1 0
0 2 2
1 0 2
1 1 1
1 2 3
2 0 1
2 1 0
2 2 0
2 16 68 0 9
0 0 0
0 1 0
0 2 2
1 0 1
1 1 0
1 2 2
2 0 2
2 1 0
2 2 1
2 7 89 0 9
0 0 0
0 1 0
0 2 2
1 0 1
1 1 0
1 2 0
2 0 3
2 1 1
2 2 1
2 30 58 0 9
0 0 0
0 1 1
0 2 1
1 0 1
1 1 0
1 2 0
2 0 2
2 1 0
2 2 1
2 2 24 0 9
0 0 2
0 1 2
0 2 0
1 0 2
1 1 2
1 2 0
2 0 0
2 1 2
2 2 0
2 36 76 0 9
0 0 3
0 1 0
0 2 0
1 0 0
1 1 1
1 2 1
2 0 3
2 1 3
2 2 0
2 30 50 0 9
0 0 3
0 1 3
0 2 0
1 0 2
1 1 2
1 2 0
2 0 0
2 1 3
2 2 0
2 30 79 0 9
0 0 0
0 1 3
0 2 3
1 0 2
1 1 0
1 2 1
2 0 0
2 1 3
2 2 0
2 64 72 0 9
0 0 0
0 1 0
0 2 2
1 0 2
1 1 0
1 2 2
2 0 0
2 1 2
2 2 2
2 34 99 0 9
0 0 3
0 1 0
0 2 3
1 0 2
1 1 0
1 2 0
2 0 3
2 1 2
2 2 0
2 32 87 0 9
0 0 0
0 1 1
0 2 0
1 0 1
1 1 0
1 2 0
2 0 2
2 1 3
2 2 2
2 8 71 0 9
0 0 3
0 1 0
0 2 0
1 0 1
1 1 0
1 2 0
2 0 1
2 1 3
2 2 2
2 64 96 0 9
0 0 1
0 1 1
0 2 0
1 0 0
1 1 1
1 2 2
2 0 2
2 1 0
2 2 0
2 11 95 0 9
0 0 1
0 1 0
0 2 1
1 0 0
1 1 1
1 2 0
2 0 1
2 1 0
2 2 2
2 26 83 0 9
0 0 1
0 1 3
0 2 1
1 0 0
1 1 0
1 2 1
2 0 0
2 1 0
2 2 3
2 88 95 0 9
0 0 3
0 1 1
0 2 0
1 0 0
1 1 0
1 2 1
2 0 0
2 1 2
2 2 2
2 10 96 0 9
0 0 0
0 1 2
0 2 3
1 0 1
1 1 0
1 2 0
2 0 0
2 1 3
2 2 3
2 37 43 0 9
0 0 0
0 1 1
0 2 0
1 0 0
1 1 3
1 2 3
2 0 0
2 1 2
2 2 1
2 72 90 0 9
0 0 1
0 1 3
0 2 0
1 0 0
1 1 1
1 2 3
2 0 1
2 1 0
2 2 0
2 48 95 0 9
0 0 1
0 1 1
0 2 3
1 0 0
1 1 3
1 2 1
2 0 0
2 1 0
2 2 0
2 26 61 0 9
0 0 1
0 1 2
0 2 0
1 0 1
1 1 1
1 2 0
2 0 1
2 1 0
2 2 0
2 0 83 0 9
0 0 0
0 1 1
0 2 2
1 0 2
1 1 2
1 2 0
2 0 0
2 1 3
2 2 0
2 60 94 0 9
0 0 0
0 1 1
0 2 3
1 0 1
1 1 3
1 2 3
2 0 0
2 1 0
2 2 0
2 11 46 0 9
0 0 0
0 1 0
0 2 3
1 0 0
1 1 3
1 2 2
2 0 0
2 1 2
2 2 3
2 89 99 0 9
0 0 2
0 1 0
0 2 3
1 0 0
1 1 2
1 2 0
2 0 0
2 1 2
2 2 3
2 22 55 0 9
0 0 1
0 1 1
0 2 0
1 0 1
1 1 0
1 2 0
2 0 0
2 1 2
2 2 1
2 87 96 0 9
0 0 2
0 1 0
0 2 1
1 0 0
1 1 3
1 2 1
2 0 2
2 1 0
2 2 0
2 42 86 0 9
0 0 0
0 1 2
0 2 1
1 0 3
1 1 0
1 2 0
2 0 1
2 1 3
2 2 0
2 37 97 0 9
0 0 0
0 1 0
0 2 1
1 0 3
1 1 0
1 2 1
2 0 0
2 1 2
2 2 2
2 7 10 0 9
0 0 2
0 1 2
0 2 0
1 0 1
1 1 2
1 2 0
2 0 2
2 1 0
2 2 0
2 12 38 0 9
0 0 0
0 1 1
0 2 0
1 0 3
1 1 1
1 2 2
2 0 0
2 1 2
2 2 0
2 34 53 0 9
0 0 2
0 1 1
0 2 1
1 0 0
1 1 0
1 2 1
2 0 3
2 1 0
2 2 0
2 21 31 0 9
0 0 3
0 1 2
0 2 2
1 0 0
1 1 0
1 2 2
2 0 0
2 1 0
2 2 3
2 34 64 0 9
0 0 0
0 1 2
0 2 2
1 0 2
1 1 0
1 2 0
2 0 0
2 1 1
2 2 1
2 54 87 0 9
0 0 3
0 1 3
0 2 0
1 0 0
1 1 0
1 2 1
2 0 2
2 1 1
2 2 0
2 22 45 0 9
0 0 0
0 1 0
0 2 0
1 0 2
1 1 3
1 2 0
2 0 2
2 1 1
2 2 1
2 21 49 0 9
0 0 2
0 1 2
0 2 0
1 0 3
1 1 0
1 2 0
2 0 0
2 1 2
2 2 2
2 25 85 0 9
0 0 2
0 1 0
0 2 2
1 0 2
1 1 1
1 2 0
2 0 0
2 1 0
2 2 2
2 15 46 0 9
0 0 2
0 1 0
0 2 0
1 0 2
1 1 1
1 2 0
2 0 3
2 1 1
2 2 0
2 38 52 0 9
0 0 1
0 1 2
0 2 3
1 0 0
1 1 0
1 2 0
2 0 3
2 1 0
2 2 3
2 37 63 0 9
0 0 0
0 1 1
0 2 0
1 0 2
1 1 3
1 2 0
2 0 2
2 1 0
2 2 2
2 45 75 0 9
0 0 0
0 1 2
0 2 1
1 0 0
1 1 0
1 2 1
2 0 2
2 1 0
2 2 1
2 24 63 0 9
0 0 2
0 1 1
0 2 0
1 0 0
1 1 3
1 2 3
2 0 0
2 1 0
2 2 2
2 15 60 0 9
0 0 1
0 1 0
0 2 0
1 0 0
1 1 1
1 2 3
2 0 1
2 1 2
2 2 0
1 0 512409557603043100 3
0 3
1 1
2 0
1 1 512409557603043100 3
0 1
1 0
2 2
1 2 512409557603043100 3
0 2
1 3
2 0
1 3 512409557603043100 3
0 0
1 0
2 1
1 4 512409557603043100 3
0 2
1 2
2 0
1 5 512409557603043100 3
0 1
1 0
2 1
1 6 512409557603043100 3
0 1
1 2
2 0
1 7 512409557603043100 3
0 0
1 0
2 0
1 8 512409557603043100 3
0 1
1 0
2 0
1 9 512409557603043100 3
0 3
1 1
2 0
1 10 512409557603043100 3
0 0
1 1
2 2
1 11 512409557603043100 3
0 0
1 1
2 0
1 12 512409557603043100 3
0 3
1 0
2 0
1 13 512409557603043100 3
0 1
1 3
2 0
1 14 512409557603043100 3
0 1
1 0
2 1
1 15 512409557603043100 3
0 2
1 2
2 0
1 16 512409557603043100 3
0 0
1 0
2 1
1 17 512409557603043100 3
0 3
1 0
2 2
1 18 512409557603043100 3
0 0
1 2
2 0
1 19 512409557603043100 3
0 0
1 0
2 0
1 20 512409557603043100 3
0 2
1 1
2 0
1 21 512409557603043100 3
0 1
1 0
2 1
1 22 512409557603043100 3
0 1
1 0
2 2
1 23 512409557603043100 3
0 3
1 0
2 3
1 24 512409557603043100 3
0 0
1 0
2 0
1 25 512409557603043100 3
0 0
1 0
2 0
1 26 512409557603043100 3
0 2
1 0
2 0
1 27 512409557603043100 3
0 0
1 1
2 0
1 28 512409557603043100 3
0 3
1 0
2 2
1 29 512409557603043100 3
0 3
1 0
2 1
1 30 512409557603043100 3
0 0
1 2
2 2
1 31 512409557603043100 3
0 1
1 0
2 0
1 32 512409557603043100 3
0 0
1 2
2 1
1 33 512409557603043100 3
0 0
1 3
2 2
1 34 512409557603043100 3
0 0
1 0
2 0
1 35 512409557603043100 3
0 1
1 1
2 0
1 36 512409557603043100 3
0 0
1 1
2 0
1 37 512409557603043100 3
0 0
1 3
2 1
1 38 512409557603043100 3
0 3
1 0
2 2
1 39 512409557603043100 3
0 1
1 0
2 2
1 40 512409557603043100 3
0 3
1 2
2 0
1 41 512409557603043100 3
0 3
1 1
2 0
1 42 512409557603043100 3
0 0
1 1
2 2
1 43 512409557603043100 3
0 1
1 0
2 0
1 44 512409557603043100 3
0 1
1 1
2 0
1 45 512409557603043100 3
0 2
1 0
2 0
1 46 512409557603043100 3
0 0
1 1
2 1
1 47 512409557603043100 3
0 2
1 2
2 0
1 48 512409557603043100 3
0 3
1 0
2 1
1 49 512409557603043100 3
0 0
1 1
2 0
1 50 512409557603043100 3
0 2
1 3
2 0
1 51 512409557603043100 3
0 0
1 0
2 1
1 52 512409557603043100 3
0 0
1 1
2 3
1 53 512409557603043100 3
0 1
1 2
2 0
1 54 512409557603043100 3
0 1
1 1
2 0
1 55 512409557603043100 3
0 2
1 2
2 0
1 56 512409557603043100 3
0 0
1 1
2 2
1 57 512409557603043100 3
0 0
1 2
2 0
1 58 512409557603043100 3
0 0
1 3
2 1
1 59 512409557603043100 3
0 0
1 1
2 2
1 60 512409557603043100 3
0 1
1 0
2 1
1 61 512409557603043100 3
0 2
1 3
2 0
1 62 512409557603043100 3
0 1
1 0
2 1
1 63 512409557603043100 3
0 0
1 2
2 0
1 64 512409557603043100 3
0 2
1 3
2 0
1 65 512409557603043100 3
0 0
1 3
2 2
1 66 512409557603043100 3
0 0
1 0
2 2
1 67 512409557603043100 3
0 1
1 1
2 0
1 68 512409557603043100 3
0 0
1 0
2 0
1 69 512409557603043100 3
0 0
1 2
2 2
1 70 512409557603043100 3
0 1
1 0
2 0
1 71 512409557603043100 3
0 1
1 0
2 1
1 72 512409557603043100 3
0 0
1 2
2 0
1 73 512409557603043100 3
0 0
1 2
2 1
1 74 512409557603043100 3
0 0
1 0
2 0
1 75 512409557603043100 3
0 1
1 0
2 0
1 76 512409557603043100 3
0 0
1 1
2 0
1 77 512409557603043100 3
0 1
1 2
2 0
1 78 512409557603043100 3
0 0
1 1
2 1
1 79 512409557603043100 3
0 0
1 1
2 0
1 80 512409557603043100 3
0 3
1 0
2 0
1 81 512409557603043100 3
0 0
1 2
2 0
1 82 512409557603043100 3
0 2
1 0
2 3
1 83 512409557603043100 3
0 1
1 0
2 1
1 84 512409557603043100 3
0 3
1 0
2 2
1 85 512409557603043100 3
0 0
1 1
2 0
1 86 512409557603043100 3
0 0
1 0
2 1
1 87 512409557603043100 3
0 0
1 0
2 1
1 88 512409557603043100 3
0 2
1 0
2 1
1 89 512409557603043100 3
0 0
1 0
2 3
1 90 512409557603043100 3
0 0
1 1
2 0
1 91 512409557603043100 3
0 2
1 0
2 3
1 92 512409557603043100 3
0 0
1 3
2 0
1 93 512409557603043100 3
0 0
1 1
2 2
1 94 512409557603043100 3
0 0
1 3
2 2
1 95 512409557603043100 3
0 3
1 0
2 1
1 96 512409557603043100 3
0 3
1 0
2 2
1 97 512409557603043100 3
0 0
1 1
2 2
1 98 512409557603043100 3
0 0
1 1
2 1
1 99 512409557603043100 3
0 2
1 0
2 3
0 55 0
